NAME          DCAP_3_4_2_500_SS129
ROWS
 N  OBJ
 L  CON1
 L  CON2
 L  CON3
 L  CON4
 L  CON5
 L  CON6
 L  CON7
 L  CON8
 L  CON9
 L  CON10
 L  CON11
 L  CON12
 E  CON13
 E  CON14
 E  CON15
 E  CON16
 E  CON17
 E  CON18
 E  CON19
 E  CON20
COLUMNS
    x[1,1]    OBJ       6.180167      CON1      1.000000    
    x[1,1]    CON7      -1.000000     CON8      -1.000000   
    x[1,2]    OBJ       5.039546      CON2      1.000000    
    x[1,2]    CON8      -1.000000   
    x[2,1]    OBJ       6.732585      CON3      1.000000    
    x[2,1]    CON9      -1.000000     CON10     -1.000000   
    x[2,2]    OBJ       7.443064      CON4      1.000000    
    x[2,2]    CON10     -1.000000   
    x[3,1]    OBJ       6.563535      CON5      1.000000    
    x[3,1]    CON11     -1.000000     CON12     -1.000000   
    x[3,2]    OBJ       6.054841      CON6      1.000000    
    x[3,2]    CON12     -1.000000   
    MARKER    'MARKER'                'INTORG'
    u[1,1]    OBJ       48.076654     CON1      -1.000000   
    u[1,2]    OBJ       49.466655     CON2      -1.000000   
    u[2,1]    OBJ       49.996186     CON3      -1.000000   
    u[2,2]    OBJ       32.230043     CON4      -1.000000   
    u[3,1]    OBJ       20.066487     CON5      -1.000000   
    u[3,2]    OBJ       27.484319     CON6      -1.000000   
    y[1,1,1]  OBJ       5.344547      CON7      0.749189    
    y[1,1,1]  CON13     1.000000    
    y[1,1,2]  OBJ       5.014765      CON8      1.148583    
    y[1,1,2]  CON14     1.000000    
    y[1,2,1]  OBJ       5.595179      CON7      0.939065    
    y[1,2,1]  CON15     1.000000    
    y[1,2,2]  OBJ       5.402494      CON8      0.970484    
    y[1,2,2]  CON16     1.000000    
    y[1,3,1]  OBJ       5.337380      CON7      0.712341    
    y[1,3,1]  CON17     1.000000    
    y[1,3,2]  OBJ       7.534653      CON8      1.298374    
    y[1,3,2]  CON18     1.000000    
    y[1,4,1]  OBJ       7.494310      CON7      0.583924    
    y[1,4,1]  CON19     1.000000    
    y[1,4,2]  OBJ       8.742486      CON8      0.998984    
    y[1,4,2]  CON20     1.000000    
    y[2,1,1]  OBJ       6.172650      CON9      0.749189    
    y[2,1,1]  CON13     1.000000    
    y[2,1,2]  OBJ       7.375202      CON10     1.148583    
    y[2,1,2]  CON14     1.000000    
    y[2,2,1]  OBJ       9.177664      CON9      0.939065    
    y[2,2,1]  CON15     1.000000    
    y[2,2,2]  OBJ       9.556672      CON10     0.970484    
    y[2,2,2]  CON16     1.000000    
    y[2,3,1]  OBJ       5.456401      CON9      0.712341    
    y[2,3,1]  CON17     1.000000    
    y[2,3,2]  OBJ       5.521551      CON10     1.298374    
    y[2,3,2]  CON18     1.000000    
    y[2,4,1]  OBJ       8.884236      CON9      0.583924    
    y[2,4,1]  CON19     1.000000    
    y[2,4,2]  OBJ       8.001514      CON10     0.998984    
    y[2,4,2]  CON20     1.000000    
    y[3,1,1]  OBJ       6.242108      CON11     0.749189    
    y[3,1,1]  CON13     1.000000    
    y[3,1,2]  OBJ       5.419461      CON12     1.148583    
    y[3,1,2]  CON14     1.000000    
    y[3,2,1]  OBJ       8.197610      CON11     0.939065    
    y[3,2,1]  CON15     1.000000    
    y[3,2,2]  OBJ       9.299472      CON12     0.970484    
    y[3,2,2]  CON16     1.000000    
    y[3,3,1]  OBJ       5.351922      CON11     0.712341    
    y[3,3,1]  CON17     1.000000    
    y[3,3,2]  OBJ       6.702691      CON12     1.298374    
    y[3,3,2]  CON18     1.000000    
    y[3,4,1]  OBJ       6.788898      CON11     0.583924    
    y[3,4,1]  CON19     1.000000    
    y[3,4,2]  OBJ       7.967121      CON12     0.998984    
    y[3,4,2]  CON20     1.000000    
    z[1,1]    OBJ       904.030329    CON13     1.000000    
    z[1,2]    OBJ       899.832400    CON14     1.000000    
    z[2,1]    OBJ       542.940525    CON15     1.000000    
    z[2,2]    OBJ       984.261281    CON16     1.000000    
    z[3,1]    OBJ       645.460895    CON17     1.000000    
    z[3,2]    OBJ       524.505637    CON18     1.000000    
    z[4,1]    OBJ       546.668573    CON19     1.000000    
    z[4,2]    OBJ       594.205554    CON20     1.000000    
    MARKER    'MARKER'                 'INTEND'
RHS
    RHS       CON1      -0.000000     CON2      -0.000000   
    RHS       CON3      -0.000000     CON4      -0.000000   
    RHS       CON5      -0.000000     CON6      -0.000000   
    RHS       CON7      -0.000000     CON8      -0.000000   
    RHS       CON9      -0.000000     CON10     -0.000000   
    RHS       CON11     -0.000000     CON12     -0.000000   
    RHS       CON13     1.000000      CON14     1.000000    
    RHS       CON15     1.000000      CON16     1.000000    
    RHS       CON17     1.000000      CON18     1.000000    
    RHS       CON19     1.000000      CON20     1.000000    
BOUNDS
 BV BOUND     u[1,1]  
 BV BOUND     u[1,2]  
 BV BOUND     u[2,1]  
 BV BOUND     u[2,2]  
 BV BOUND     u[3,1]  
 BV BOUND     u[3,2]  
 BV BOUND     y[1,1,1]
 BV BOUND     y[1,1,2]
 BV BOUND     y[1,2,1]
 BV BOUND     y[1,2,2]
 BV BOUND     y[1,3,1]
 BV BOUND     y[1,3,2]
 BV BOUND     y[1,4,1]
 BV BOUND     y[1,4,2]
 BV BOUND     y[2,1,1]
 BV BOUND     y[2,1,2]
 BV BOUND     y[2,2,1]
 BV BOUND     y[2,2,2]
 BV BOUND     y[2,3,1]
 BV BOUND     y[2,3,2]
 BV BOUND     y[2,4,1]
 BV BOUND     y[2,4,2]
 BV BOUND     y[3,1,1]
 BV BOUND     y[3,1,2]
 BV BOUND     y[3,2,1]
 BV BOUND     y[3,2,2]
 BV BOUND     y[3,3,1]
 BV BOUND     y[3,3,2]
 BV BOUND     y[3,4,1]
 BV BOUND     y[3,4,2]
 BV BOUND     z[1,1]  
 BV BOUND     z[1,2]  
 BV BOUND     z[2,1]  
 BV BOUND     z[2,2]  
 BV BOUND     z[3,1]  
 BV BOUND     z[3,2]  
 BV BOUND     z[4,1]  
 BV BOUND     z[4,2]  
ENDATA
